StudentsNr = 10;
InstructorsNr = 83;
DaysNr = 1;
SlotsPerDay = 15;
AvailabilitySlotsLenght = 3;
RoomNr = 1;
ProgrammNr = 2;
DegreeNr = 1;
RolesNr = 2;
CoursesNr = 1;
InstructorsProgramm = [{1, 2}, {1}, {2}, {1}, {1}, {1}, {2}, {2}, {1, 2}, {2}, {1, 2}, {1, 2}, {2}, {1, 2}, {2}, {1, 2}, {1, 2}, {2}, {1, 2}, {1, 2}, {1}, {1}, {2}, {1}, {1}, {1}, {2}, {1, 2}, {2}, {2}, {1, 2}, {1, 2}, {1}, {1, 2}, {1, 2}, {1}, {1}, {2}, {2}, {1, 2}, {2}, {2}, {1}, {2}, {1}, {1, 2}, {1}, {1}, {2}, {2}, {2}, {2}, {1}, {1}, {2}, {1, 2}, {1}, {2}, {1, 2}, {1, 2}, {2}, {1}, {2}, {2}, {2}, {2}, {1}, {1, 2}, {2}, {1}, {1}, {1, 2}, {1}, {1}, {1, 2}, {2}, {1, 2}, {2}, {2}, {2}, {2}, {1, 2}, {1, 2}];
InstructorRolesPerProgramm = [|{2, 6, 17, 20, 26, 28, 32, 33, 40, 43, 45, 46, 48, 53, 54, 60, 67, 70}, {2, 4, 5, 6, 12, 19, 20, 21, 22, 24, 26, 28, 32, 37, 40, 43, 47, 48, 57, 59, 62, 68, 70, 72, 73, 74, 75, 83}|{17, 20, 28, 30, 32, 40, 42, 44, 46, 51, 55, 58, 60, 61, 66, 78, 81}, {3, 12, 15, 18, 19, 20, 23, 28, 30, 32, 38, 40, 49, 51, 55, 59, 63, 65, 68, 72, 75, 80, 83}|];
InstructorsAvailability = [|0, 0, 1, 0, 1, |0, 1, 1, 1, 1, |0, 1, 1, 1, 0, |1, 1, 1, 1, 1, |1, 1, 1, 1, 1, |0, 1, 1, 1, 1, |0, 1, 1, 1, 1, |0, 0, 0, 1, 1, |1, 1, 0, 1, 1, |1, 1, 0, 0, 0, |1, 1, 0, 0, 0, |1, 1, 1, 1, 1, |1, 1, 0, 0, 0, |0, 0, 1, 1, 1, |0, 0, 1, 0, 0, |0, 1, 1, 1, 1, |1, 0, 0, 1, 1, |1, 1, 1, 1, 1, |0, 1, 1, 1, 1, |0, 1, 1, 0, 0, |1, 1, 0, 1, 0, |0, 1, 1, 1, 1, |0, 0, 1, 1, 1, |0, 0, 1, 1, 1, |1, 1, 1, 1, 1, |0, 0, 1, 1, 0, |0, 0, 1, 1, 1, |0, 0, 1, 1, 1, |1, 1, 1, 0, 1, |1, 1, 1, 1, 1, |0, 0, 1, 0, 0, |1, 1, 1, 1, 1, |1, 1, 1, 0, 1, |0, 1, 0, 0, 1, |1, 0, 1, 1, 1, |0, 1, 1, 1, 1, |1, 1, 1, 1, 1, |0, 0, 1, 0, 1, |0, 0, 1, 1, 0, |1, 0, 1, 1, 1, |0, 1, 1, 1, 1, |0, 1, 1, 1, 1, |0, 1, 1, 1, 1, |0, 0, 1, 1, 1, |1, 0, 0, 0, 1, |1, 1, 1, 1, 1, |0, 1, 1, 1, 1, |0, 1, 1, 1, 1, |0, 1, 0, 0, 0, |0, 0, 0, 1, 1, |0, 0, 1, 1, 1, |0, 1, 1, 0, 0, |1, 1, 1, 1, 1, |0, 0, 1, 1, 0, |1, 1, 1, 1, 1, |1, 1, 1, 1, 1, |1, 1, 1, 1, 1, |1, 0, 0, 0, 0, |1, 0, 1, 1, 1, |0, 1, 1, 1, 1, |0, 0, 0, 0, 0, |1, 1, 1, 1, 1, |1, 1, 1, 0, 0, |0, 1, 1, 1, 1, |0, 1, 1, 1, 1, |0, 0, 1, 1, 1, |1, 1, 1, 1, 1, |1, 0, 1, 1, 1, |0, 1, 0, 0, 1, |1, 1, 1, 1, 1, |1, 1, 1, 1, 1, |1, 0, 1, 1, 1, |1, 1, 1, 1, 1, |1, 1, 0, 1, 1, |1, 1, 1, 0, 1, |1, 1, 1, 1, 1, |0, 1, 1, 1, 1, |1, 1, 1, 1, 1, |0, 0, 1, 0, 0, |1, 0, 1, 1, 1, |0, 1, 1, 1, 1, |0, 1, 1, 1, 1, |1, 1, 1, 1, 1|];
StudentsProgramm = [1, 2, 2, 2, 2, 1, 1, 1, 1, 2];
StudentsDegree = [1, 1, 1, 1, 1, 1, 1, 1, 1, 1];
StudentsSupervisorId = [48, 72, 55, 35, 28, 77, 5, 60, 4, 23];
StudentsCourseIds = [{}, {}, {}, {}, {}, {}, {}, {}, {}, {}];
StudentsAvailability = [|1, 1, 1, 1, 1, |1, 1, 1, 1, 1, |0, 1, 1, 1, 1, |1, 1, 1, 1, 1, |0, 1, 1, 1, 1, |0, 1, 1, 1, 0, |1, 1, 1, 1, 1, |0, 0, 1, 1, 1, |1, 1, 1, 1, 1, |1, 1, 1, 1, 1|];
TheoryticalMinCard = [0, 0, 0, 1, 0, 1, 0, 0, 0, 0];
CoursesInstructorIds = [{1, 2, 3, 4, 6, 8, 10, 12, 16, 17, 20, 29, 38, 42, 46, 47, 49, 52, 54, 56, 57, 58, 62, 64, 65, 66, 69, 70, 72, 73, 74, 77, 78, 79, 80, 81}];
RolesDemands = [6, 18];
RolesContinuity = [];
ExamLen = [2, 2, 2, 2, 2, 2, 2, 2, 2, 2];
LunchTsMinLen = 2;
LunchStarts = [7..8];
SupervisorAvailable = 5;
OptimalLunchLenght = [1, 2];
OptimalStartTs = [0, 1];
OptimalFinishTs = [0, 14];
MinimizeRooms = 0;
RolesSoftContinuity = [|1, 2|0, 3|];
SameDegreeInRoom = 10;
Mergeability = 1;
